0 0 0 0
0 1 0 0
0 2 0 0
0 3 1 0
0 4 0 3
0 5 0 4
0 6 0 5
0 7 1 5
0 8 0 3
0 9 1 1
0 10 0 6
0 11 2 4
0 12 0 3
0 13 1 9
0 14 0 7
0 15 0 12
0 16 1 7
0 17 0 15
0 18 0 13
0 19 2 6
0 20 1 19
0 21 0 13
0 22 0 16
0 23 1 21
0 24 0 12
0 25 0 23
0 26 0 19
0 27 0 15
0 28 1 24
0 29 1 24
0 30 0 23
0 31 0 31
